solving instance uflp nldep orlib 61 sinabc1
Set parameter TokenServer to value "licences.gerad.lan"
Set parameter MIPGap to value 1e-06
Set parameter FuncPieceError to value 1e-06
Set parameter Threads to value 1
Set parameter FuncPieces to value -2
Set parameter TimeLimit to value 3600
Gurobi Optimizer version 12.0.2 build v12.0.2rc0 (linux64 - "AlmaLinux 9.6 (Sage Margay)")

CPU model: Intel(R) Xeon(R) Gold 6258R CPU @ 2.70GHz, instruction set [SSE2|AVX|AVX2|AVX512]
Thread count: 56 physical cores, 56 logical processors, using up to 1 threads

Non-default parameters:
TimeLimit  3600
MIPGap  1e-06
Threads  1
FuncPieces  -2
FuncPieceError  1e-06

Optimize a model with 914 rows, 912 columns and 3327 nonzeros
Model fingerprint: 0x7a5ceb59
Model has 32 function constraints treated as nonlinear
  16 POW, 16 SIN
Variable types: 896 continuous, 16 integer (16 binary)
Coefficient statistics:
  Matrix range     [2e-05, 1e+04]
  Objective range  [1e+00, 1e+06]
  Bounds range     [1e+00, 1e+10]
  RHS range        [1e+00, 1e+00]
Warning: Model contains large bounds
         Consider reformulating model or setting NumericFocus parameter
         to avoid numerical issues.
Presolve removed 818 rows and 50 columns
Presolve time: 0.00s
Presolved: 176 rows, 863 columns, 1851 nonzeros
Presolved model has 15 quadratic objective terms
Presolved model has 16 nonlinear constraint(s)

Solving non-convex MINLP

Variable types: 863 continuous, 0 integer (0 binary)

Root relaxation: objective 8.389161e+05, 225 iterations, 0.00 seconds (0.00 work units)

    Nodes    |    Current Node    |     Objective Bounds      |     Work
 Expl Unexpl |  Obj  Depth IntInf | Incumbent    BestBd   Gap | It/Node Time

     0     0 838916.051    0   16          - 838916.051      -     -    0s
     0     0 838916.051    0   16          - 838916.051      -     -    0s
H    0     0                    840230.20875 838916.051  0.16%     -    0s
     0     2 840200.215    0   16 840230.209 840200.215  0.00%     -    0s

Explored 3 nodes (308 simplex iterations) in 0.31 seconds (0.09 work units)
Thread count was 1 (of 56 available processors)

Solution count 1: 840230 

Optimal solution found (tolerance 1.00e-06)
Best objective 8.402302087503e+05, best bound 8.402302087503e+05, gap 0.0000%

User-callback calls 370, time in user-callback 0.00 sec
reading orlib data file ../../../../../instances/uflp/orlib/cap61.txt
primal_bound = 840230.2087503378, dual_bound = 840230.208750338, gap = 1.3855169763543447e-14, time = 0.32
OPTIMAL LOCATIONS:
y[1] = 1.0
y[2] = 1.0
y[3] = 1.0
y[4] = 1.0
y[5] = 1.0
y[6] = 1.0
y[7] = 1.0
y[8] = 1.0
y[9] = 1.0
y[10] = 1.0
y[11] = 1.0
y[12] = 1.0
y[13] = 1.0
y[14] = 1.0
y[15] = 1.0
y[16] = 1.0
OPTIMAL WAREHOUSING:
f[1] = 1678.0
f[2] = 2370.0
f[3] = 14001.0
f[4] = 7129.0
f[5] = 1569.0
f[6] = 10151.0
f[7] = 1359.0
f[8] = 2741.0
f[9] = 3016.0
f[10] = 807.0
f[11] = 3131.0
f[12] = 1814.0
f[13] = 6609.0
f[14] = 482.0
f[15] = 495.0
f[16] = 916.0
OPTIMAL WAREHOUSING COSTS:
nlobj[1] = 15.344761070787127
nlobj[2] = 30.588232712117332
nlobj[3] = 1015.5404751347171
nlobj[4] = 273.5098713719768
nlobj[5] = 13.417214046598868
nlobj[6] = 547.0032492803708
nlobj[7] = 10.067584654063678
nlobj[8] = 40.894051995729065
nlobj[9] = 49.4908276840003
nlobj[10] = 3.551153090114383
nlobj[11] = 0.0
nlobj[12] = 17.930680907626822
nlobj[13] = 235.50495354072567
nlobj[14] = 1.2669633015379709
nlobj[15] = 1.3362229071162024
nlobj[16] = 4.575008640344267
OPTIMAL ASSIGNMENTS:
x[1, 3] = 1.0
x[1, 6] = 1.0
x[1, 14] = 1.0
x[1, 24] = 1.0
x[2, 7] = 1.0
x[3, 8] = 1.0
x[3, 34] = 1.0
x[4, 11] = 1.0
x[4, 17] = 1.0
x[4, 19] = 1.0
x[4, 21] = 1.0
x[4, 42] = 1.0
x[5, 12] = 1.0
x[5, 26] = 1.0
x[5, 40] = 1.0
x[6, 4] = 1.0
x[6, 13] = 1.0
x[6, 37] = 1.0
x[6, 38] = 1.0
x[6, 49] = 1.0
x[7, 15] = 1.0
x[7, 20] = 1.0
x[7, 44] = 1.0
x[7, 48] = 1.0
x[8, 1] = 1.0
x[8, 5] = 1.0
x[8, 9] = 1.0
x[8, 10] = 1.0
x[8, 16] = 1.0
x[8, 39] = 1.0
x[8, 43] = 1.0
x[8, 46] = 1.0
x[8, 47] = 1.0
x[9, 18] = 1.0
x[10, 22] = 1.0
x[11, 23] = 1.0
x[11, 28] = 1.0
x[11, 32] = 1.0
x[11, 41] = 1.0
x[12, 2] = 1.0
x[12, 25] = 1.0
x[12, 35] = 1.0
x[12, 36] = 1.0
x[12, 50] = 1.0
x[13, 27] = 1.0
x[13, 45] = 1.0
x[14, 29] = 1.0
x[15, 30] = 1.0
x[16, 31] = 1.0
x[16, 33] = 1.0
fixed costs = 112500.0
assignment costs = 837970.1874999999
warehousing costs = 2260.0212503378266
total cost = 840230.2087503377
